objective value:                 0.000250889999000132
x_1_2                                               1 	(obj:0)
x_2_3                                               1 	(obj:0)
x_3_1                                               1 	(obj:0)
x_4_3                                               1 	(obj:0)
x_5_2                                               1 	(obj:0)
x_6_2                                               1 	(obj:0)
x_7_3                                               1 	(obj:0)
x_8_1                                               1 	(obj:0)
x_9_2                                               1 	(obj:0)
x_10_3                                              1 	(obj:0)
x_11_2                                              1 	(obj:0)
x_12_1                                              1 	(obj:0)
x_13_1                                              1 	(obj:0)
x_14_3                                              1 	(obj:0)
x_15_3                                              1 	(obj:0)
x_16_2                                              1 	(obj:0)
x_17_3                                              1 	(obj:0)
x_18_1                                              1 	(obj:0)
x_19_2                                              1 	(obj:0)
x_20_3                                              1 	(obj:0)
ind_1                                               1 	(obj:0)
abs_1_2                                             1 	(obj:0)
ind_2                                               1 	(obj:0)
abs_2_3                                             1 	(obj:0)
ind_3                                               1 	(obj:0)
abs_3_1                                             1 	(obj:0)
epsI                             0.000250889999000132 	(obj:1)
prodt_x_19_2_t_x_20_3_irrev2_3_2                    1 	(obj:0)
prodt_x_19_2_t_x_20_3_irrev1_3_2                    1 	(obj:0)
prodt_x_1_2_t_x_2_1_more_coh_1           0.6184710566 	(obj:0)
prodt_x_3_1_t_x_4_1_more_coh_1           3.5431389196 	(obj:0)
prodt_x_8_1_t_x_11_1_more_coh_1          5.1792948258 	(obj:0)
prodt_x_12_1_t_x_13_1_more_coh_1         2.9633441822 	(obj:0)
prodt_x_13_1_t_x_15_1_more_coh_1          1.177466701 	(obj:0)
prodt_x_1_2_t_x_2_2_more_coh_2           3.7174403784 	(obj:0)
prodt_x_5_2_t_x_6_2_more_coh_2            1.323862032 	(obj:0)
prodt_x_6_2_t_x_7_2_more_coh_2            3.076752566 	(obj:0)
prodt_x_9_2_t_x_14_2_more_coh_2          2.9752790312 	(obj:0)
prodt_x_11_2_t_x_12_2_more_coh_2         1.5467415098 	(obj:0)
prodt_x_16_2_t_x_17_2_more_coh_2         0.7115554655 	(obj:0)
prodt_x_2_3_t_x_3_3_more_coh_3           3.2845597179 	(obj:0)
prodt_x_4_3_t_x_5_3_more_coh_3       4.55171364333333 	(obj:0)
prodt_x_7_3_t_x_9_3_more_coh_3           3.1103089431 	(obj:0)
prodt_x_10_3_t_x_11_3_more_coh_3         2.0739327631 	(obj:0)
prodt_x_14_3_t_x_15_3_more_coh_3     2.22536961766667 	(obj:0)
prodt_x_15_3_t_x_16_3_more_coh_3         0.5057541497 	(obj:0)
prodt_x_17_3_t_x_18_3_more_coh_3         0.7704351927 	(obj:0)
prodt_x_1_2_t_x_2_2_more_irrev1_2_1     2.63854257597734 	(obj:0)
prodt_x_3_1_t_x_4_2_more_irrev1_2_1     1.99164369506964 	(obj:0)
prodt_x_5_2_t_x_7_1_more_irrev1_2_1    0.204342810027878 	(obj:0)
prodt_x_6_2_t_x_7_1_more_irrev1_2_1     3.01636705178365 	(obj:0)
prodt_x_8_1_t_x_9_2_more_irrev1_2_1     1.85161019120099 	(obj:0)
prodt_x_9_2_t_x_11_1_more_irrev1_2_1    0.838693645667403 	(obj:0)
prodt_x_11_2_t_x_13_1_more_irrev1_2_1     1.97245366168413 	(obj:0)
prodt_x_12_1_t_x_14_2_more_irrev1_2_1   0.0412285090540962 	(obj:0)
prodt_x_13_1_t_x_14_2_more_irrev1_2_1      1.4623889289805 	(obj:0)
prodt_x_16_2_t_x_19_1_more_irrev1_2_1    0.240328811189446 	(obj:0)
prodt_x_18_1_t_x_19_2_more_irrev1_2_1    0.666601169212479 	(obj:0)
prodt_x_1_2_t_x_2_2_more_irrev2_2_1    -2.63854257597734 	(obj:0)
prodt_x_3_1_t_x_4_2_more_irrev2_2_1    -1.99164369506964 	(obj:0)
prodt_x_5_2_t_x_7_1_more_irrev2_2_1   -0.204342810027878 	(obj:0)
prodt_x_6_2_t_x_7_1_more_irrev2_2_1    -3.01636705178365 	(obj:0)
prodt_x_8_1_t_x_9_2_more_irrev2_2_1    -1.85161019120099 	(obj:0)
prodt_x_9_2_t_x_11_1_more_irrev2_2_1   -0.838693645667405 	(obj:0)
prodt_x_11_2_t_x_13_1_more_irrev2_2_1    -1.97245366168414 	(obj:0)
prodt_x_12_1_t_x_14_2_more_irrev2_2_1  -0.0412285090540962 	(obj:0)
prodt_x_13_1_t_x_14_2_more_irrev2_2_1     -1.4623889289805 	(obj:0)
prodt_x_16_2_t_x_19_1_more_irrev2_2_1   -0.240328811189446 	(obj:0)
prodt_x_18_1_t_x_19_2_more_irrev2_2_1   -0.666601169212479 	(obj:0)
prodt_x_1_2_t_x_2_3_more_irrev1_3_1    -2.66485700618622 	(obj:0)
prodt_x_2_3_t_x_3_1_more_irrev1_3_1    -3.85863946731297 	(obj:0)
prodt_x_3_1_t_x_4_3_more_irrev1_3_1    -3.42259299619812 	(obj:0)
prodt_x_4_3_t_x_7_1_more_irrev1_3_1    -2.22784367590231 	(obj:0)
prodt_x_7_3_t_x_10_1_more_irrev1_3_1    -3.31314473398117 	(obj:0)
prodt_x_8_1_t_x_9_3_more_irrev1_3_1    -1.75053186221993 	(obj:0)
prodt_x_10_3_t_x_12_1_more_irrev1_3_1    -2.15365787490837 	(obj:0)
prodt_x_12_1_t_x_14_3_more_irrev1_3_1    -2.11681754668671 	(obj:0)
prodt_x_13_1_t_x_14_3_more_irrev1_3_1    -1.54017406013417 	(obj:0)
prodt_x_14_3_t_x_15_1_more_irrev1_3_1   -0.553130631274716 	(obj:0)
prodt_x_15_3_t_x_16_1_more_irrev1_3_1   -0.219345817017218 	(obj:0)
prodt_x_17_3_t_x_18_1_more_irrev1_3_1                   -1 	(obj:0)
prodt_x_18_1_t_x_19_3_more_irrev1_3_1                   -1 	(obj:0)
prodt_x_1_2_t_x_2_3_more_irrev2_3_1     2.66485700618621 	(obj:0)
prodt_x_2_3_t_x_3_1_more_irrev2_3_1     3.85863946731296 	(obj:0)
prodt_x_3_1_t_x_4_3_more_irrev2_3_1     3.42259299619812 	(obj:0)
prodt_x_4_3_t_x_7_1_more_irrev2_3_1     2.22784367590231 	(obj:0)
prodt_x_7_3_t_x_10_1_more_irrev2_3_1     3.31314473398117 	(obj:0)
prodt_x_8_1_t_x_9_3_more_irrev2_3_1     1.75053186221993 	(obj:0)
prodt_x_10_3_t_x_12_1_more_irrev2_3_1     2.15365787490837 	(obj:0)
prodt_x_12_1_t_x_14_3_more_irrev2_3_1     2.11681754668671 	(obj:0)
prodt_x_13_1_t_x_14_3_more_irrev2_3_1     1.54017406013417 	(obj:0)
prodt_x_14_3_t_x_15_1_more_irrev2_3_1    0.553130631274716 	(obj:0)
prodt_x_15_3_t_x_16_1_more_irrev2_3_1    0.219345817017218 	(obj:0)
prodt_x_17_3_t_x_18_1_more_irrev2_3_1                    1 	(obj:0)
prodt_x_18_1_t_x_19_3_more_irrev2_3_1                    1 	(obj:0)
prodt_x_1_2_t_x_2_3_more_irrev1_3_2     2.66485700618621 	(obj:0)
prodt_x_2_3_t_x_3_2_more_irrev1_3_2     1.46842996843773 	(obj:0)
prodt_x_4_3_t_x_7_2_more_irrev1_3_2     3.56123321458588 	(obj:0)
prodt_x_5_2_t_x_10_3_more_irrev1_3_2    -1.89326231113444 	(obj:0)
prodt_x_6_2_t_x_7_3_more_irrev1_3_2     1.11748444969203 	(obj:0)
prodt_x_7_3_t_x_10_2_more_irrev1_3_2     2.28949867057281 	(obj:0)
prodt_x_9_2_t_x_11_3_more_irrev1_3_2     2.52325601073913 	(obj:0)
prodt_x_10_3_t_x_12_2_more_irrev1_3_2      2.1148207324074 	(obj:0)
prodt_x_11_2_t_x_13_3_more_irrev1_3_2      1.2642359453787 	(obj:0)
prodt_x_14_3_t_x_15_2_more_irrev1_3_2   -0.795430178849517 	(obj:0)
prodt_x_15_3_t_x_16_2_more_irrev1_3_2     1.56046511676151 	(obj:0)
prodt_x_16_2_t_x_20_3_more_irrev1_3_2     1.57807064711893 	(obj:0)
prodt_x_17_3_t_x_18_2_more_irrev1_3_2    0.739570477163384 	(obj:0)
prodt_x_1_2_t_x_2_3_more_irrev2_3_2    -2.66485700618623 	(obj:0)
prodt_x_2_3_t_x_3_2_more_irrev2_3_2    -1.46842996843812 	(obj:0)
prodt_x_4_3_t_x_7_2_more_irrev2_3_2    -3.56123321458609 	(obj:0)
prodt_x_5_2_t_x_10_3_more_irrev2_3_2     1.89326231113444 	(obj:0)
prodt_x_6_2_t_x_7_3_more_irrev2_3_2    -1.11748444969203 	(obj:0)
prodt_x_7_3_t_x_10_2_more_irrev2_3_2    -2.28949867057277 	(obj:0)
prodt_x_9_2_t_x_11_3_more_irrev2_3_2    -2.52325601073913 	(obj:0)
prodt_x_10_3_t_x_12_2_more_irrev2_3_2    -2.11482073240739 	(obj:0)
prodt_x_11_2_t_x_13_3_more_irrev2_3_2     -1.2642359453787 	(obj:0)
prodt_x_14_3_t_x_15_2_more_irrev2_3_2    0.795430178849517 	(obj:0)
prodt_x_15_3_t_x_16_2_more_irrev2_3_2    -1.56046511676151 	(obj:0)
prodt_x_16_2_t_x_20_3_more_irrev2_3_2    -1.57807064711893 	(obj:0)
prodt_x_17_3_t_x_18_2_more_irrev2_3_2   -0.739570477163384 	(obj:0)
SCIP Status        : solving was interrupted [time limit reached]
Total Time         :    3600.00
  solving          :    3600.00
  presolving       :       0.05 (included in solving)
  reading          :       0.00
  copying          :       1.43 (162 #copies) (minimal 0.00, maximal 0.02, average 0.01)
Original Problem   :
  Problem name     : ../instances/Pot3NonCycle/Pot3NonCycle_T_20B_1t.txt.spa
  Variables        : 101 (100 binary, 0 integer, 0 implicit integer, 1 continuous)
  Constraints      : 193 initial, 193 maximal
  Objective sense  : maximize
Presolved Problem  :
  Problem name     : t_../instances/Pot3NonCycle/Pot3NonCycle_T_20B_1t.txt.spa
  Variables        : 590 (92 binary, 0 integer, 16 implicit integer, 482 continuous)
  Constraints      : 2039 initial, 4744 maximal
Presolvers         :   ExecTime  SetupTime  Calls  FixedVars   AggrVars   ChgTypes  ChgBounds   AddHoles    DelCons    AddCons   ChgSides   ChgCoefs
  boundshift       :       0.00       0.00      0          0          0          0          0          0          0          0          0          0
  components       :       0.00       0.00      1          0          0          0          0          0          0          0          0          0
  convertinttobin  :       0.00       0.00      0          0          0          0          0          0          0          0          0          0
  domcol           :       0.00       0.00      1          0          0          0          0          0          0          0          0          0
  dualagg          :       0.00       0.00      0          0          0          0          0          0          0          0          0          0
  dualinfer        :       0.00       0.00      0          0          0          0          0          0          0          0          0          0
  gateextraction   :       0.00       0.00      3          0          0          0          0          0        108         34          0          0
  implfree         :       0.00       0.00      0          0          0          0          0          0          0          0          0          0
  implics          :       0.00       0.00      4          0          0          0          0          0          0          0          0          0
  inttobinary      :       0.00       0.00      0          0          0          0          0          0          0          0          0          0
  redvub           :       0.00       0.00      0          0          0          0          0          0          0          0          0          0
  stuffing         :       0.00       0.00      1          0          0          0          0          0          0          0          0          0
  trivial          :       0.00       0.00      7          0          0          0          0          0          0          0          0          0
  tworowbnd        :       0.00       0.00      0          0          0          0          0          0          0          0          0          0
  dualfix          :       0.00       0.00      7          4          0          0          0          0          0          0          0          0
  genvbounds       :       0.00       0.00      0          0          0          0          0          0          0          0          0          0
  probing          :       0.03       0.00      1          0          0          0          4          0          0          0          0          0
  pseudoobj        :       0.00       0.00      0          0          0          0          0          0          0          0          0          0
  varbound         :       0.00       0.00      9          0          0          0          0          0         28         28          0          0
  setppc           :       0.00       0.00     12          0          0          0          0          0          0          0          0          0
  and              :       0.00       0.00      4          0         12          0          0          0         12          0          0          0
  linear           :       0.00       0.00      9          3          1          0          4          0          7          0         12         12
  logicor          :       0.01       0.00      7          0          0          0          0          0          0          0          0          0
  bounddisjunction :       0.00       0.00      0          0          0          0          0          0          0          0          0          0
  quadratic        :       0.01       0.00      2          0          0          0          0          0          0       1939          0          0
  root node        :          -          -      -          1          -          -         19          -          -          -          -          -
Constraints        :     Number  MaxNumber  #Separate #Propagate    #EnfoLP    #EnfoPS     #Check   #ResProp    Cutoffs    DomReds       Cuts    Applied      Conss   Children
  integral         :          0          0          0          0    2266216          0     102645          0          0      84425          0          0        325    4378970
  varbound         :        893        893         20   13324414      66288          0     100945    7866302      86406   96897451       1876       1876          0          0
  setppc           :        110+       112         20   13180704      67535          0      16334    3650101      21565    6461445          0          0          0          0
  and              :         22         22     634510    3260525      43653          0      15026     455897          8     258712      12860      12849          0          0
  linear           :        979        979         20   13221946      57870          0      12387    4789744     455664  155993404    1184783    1184512          0          0
  logicor          :         35+      1629         18    4182656          0          0          0     210357      22615     316864          0          0          0          0
  bounddisjunction :          0+      1412          0    5738718          0          0          0     243884      30626    4397178          0          0          0          0
  countsols        :          0          0          0          0         15          0         82          0          0          0          0          0          0          0
Constraint Timings :  TotalTime  SetupTime   Separate  Propagate     EnfoLP     EnfoPS      Check    ResProp    SB-Prop
  integral         :      23.58       0.00       0.00       0.00      23.56       0.00       0.02       0.00       0.00
  varbound         :      77.17       0.00       0.00      75.17       0.12       0.00       0.69       0.99       0.20
  setppc           :      47.61       0.00       0.00      46.43       0.01       0.00       0.05       0.86       0.26
  and              :       1.09       0.00       0.15       0.81       0.01       0.00       0.00       0.11       0.01
  linear           :     216.43       0.00       0.01     211.70       0.90       0.00       0.16       2.93       0.73
  logicor          :      23.53       0.00       0.00      23.35       0.00       0.00       0.00       0.15       0.03
  bounddisjunction :      40.27       0.00       0.00      40.17       0.00       0.00       0.00       0.07       0.03
  countsols        :       0.00       0.00       0.00       0.00       0.00       0.00       0.00       0.00       0.00
Propagators        : #Propagate   #ResProp    Cutoffs    DomReds
  dualfix          :          2          0          0          0
  genvbounds       :          0          0          0          0
  obbt             :          0          0          0          0
  probing          :          0          0          0          0
  pseudoobj        :   13870411          0      63391         17
  redcost          :    4622135          0          0     171452
  rootredcost      :         18          0          0          1
  vbounds          :   15547307       7901         23      43394
Propagator Timings :  TotalTime  SetupTime   Presolve  Propagate    ResProp    SB-Prop
  dualfix          :       0.00       0.00       0.00       0.00       0.00       0.00
  genvbounds       :       2.22       0.00       0.00       2.22       0.00       0.00
  obbt             :       0.00       0.00       0.00       0.00       0.00       0.00
  probing          :       0.03       0.00       0.03       0.00       0.00       0.00
  pseudoobj        :       8.81       0.00       0.00       8.80       0.00       0.01
  redcost          :      14.08       0.00       0.00      14.08       0.00       0.00
  rootredcost      :       2.26       0.00       0.00       2.26       0.00       0.00
  vbounds          :       5.60       0.00       0.00       5.59       0.00       0.01
Conflict Analysis  :       Time      Calls    Success    DomReds  Conflicts   Literals    Reconvs ReconvLits   LP Iters
  propagation      :      12.51     227954     223000          -    2487648       36.2       6595       26.9          -
  infeasible LP    :       3.94      37296      16425          -     278873       43.3         51       16.2          0
  bound exceed. LP :       0.00          0          0          -          0        0.0          0        0.0          0
  strong branching :       0.00          0          0          -          0        0.0          0        0.0          0
  pseudo solution  :       0.00          0          0          -          0        0.0          0        0.0          -
  applied globally :       4.64          -          -          0     433372       19.6          -          -          -
  applied locally  :          -          -          -          0       2276       42.5          -          -          -
Separators         :   ExecTime  SetupTime      Calls    Cutoffs    DomReds       Cuts    Applied      Conss
  cut pool         :       0.00                    19          -          -        500          -          -    (maximal pool size: 654)
  cgmip            :       0.00       0.00          0          0          0          0          0          0
  clique           :       0.00       0.00         20          0          0         45         27          0
  closecuts        :       0.00       0.00          0          0          0          0          0          0
  cmir             :       0.03       0.00         10          0          0        304        188          0
  disjunctive      :       0.00       0.00          0          0          0          0          0          0
  eccuts           :       0.00       0.00          0          0          0          0          0          0
  flowcover        :       0.13       0.00         15          0          0        335         37          0
  gomory           :       0.04       0.00         10          0          0          3          3          0
  impliedbounds    :       0.00       0.00         20          0          0        422         78          0
  intobj           :       0.00       0.00          0          0          0          0          0          0
  mcf              :       0.00       0.00          1          0          0          0          0          0
  oddcycle         :       0.00       0.00          0          0          0          0          0          0
  rapidlearning    :       0.00       0.00          0          0          0          0          0          0
  strongcg         :       0.11       0.00         20          0          0          0          0          0
  zerohalf         :       0.00       0.00          0          0          0          0          0          0
Pricers            :   ExecTime  SetupTime      Calls       Vars
  problem variables:       0.00          -          0          0
Branching Rules    :   ExecTime  SetupTime   BranchLP  BranchExt   BranchPS    Cutoffs    DomReds       Cuts      Conss   Children
  allfullstrong    :       0.00       0.00          0          0          0          0          0          0          0          0
  cloud            :       0.00       0.00          0          0          0          0          0          0          0          0
  distribution     :       0.00       0.00          0          0          0          0          0          0          0          0
  fullstrong       :       0.00       0.00          0          0          0          0          0          0          0          0
  inference        :       0.00       0.00          0          0          8          0          0          0          0         16
  leastinf         :       0.00       0.00          0          0          0          0          0          0          0          0
  mostinf          :       0.00       0.00          0          0          0          0          0          0          0          0
  multaggr         :       0.00       0.00          0          0          0          0          0          0          0          0
  nodereopt        :       0.00       0.00          0          0          0          0          0          0          0          0
  pscost           :       0.00       0.00          0          0          0          0          0          0          0          0
  random           :       0.00       0.00          0          0          0          0          0          0          0          0
  relpscost        :      22.70       0.00    2196165          0          0          0      84425          0       -771    4378954
Primal Heuristics  :   ExecTime  SetupTime      Calls      Found       Best
  LP solutions     :       0.07          -          -         15          -
  pseudo solutions :       0.00          -          -          0          -
  strong branching :       0.00          -          -          1          -
  SpaGreedy        :     321.37       0.00     333628          0          0
  actconsdiving    :       0.00       0.00          0          0          0
  bound            :       0.00       0.00          0          0          0
  clique           :       0.00       0.00          0          0          0
  coefdiving       :      36.11       0.00      14884          0          0
  crossover        :       1.47       0.00          6          0          0
  dins             :       0.00       0.00          0          0          0
  distributiondivin:      55.70       0.00      14884          0          0
  dualval          :       0.00       0.00          0          0          0
  feaspump         :       0.16       0.00         44          4          0
  fixandinfer      :       0.00       0.00          0          0          0
  fracdiving       :      41.05       0.00      14884          0          0
  guideddiving     :      40.04       0.00      14884          0          0
  indicator        :       0.38       0.00          0          0          0
  intdiving        :       0.00       0.00          0          0          0
  intshifting      :       0.23       0.00        199          0          0
  linesearchdiving :      41.92       0.00      14884          0          0
  localbranching   :       0.00       0.00          0          0          0
  mutation         :       0.00       0.00          0          0          0
  nlpdiving        :       0.01       0.00          0          0          0
  objpscostdiving  :      25.39       0.00       2769         45          0
  octane           :       0.00       0.00          0          0          0
  ofins            :       0.00       0.00          0          0          0
  oneopt           :       0.50       0.00         18          0          0
  proximity        :       0.00       0.00          0          0          0
  pscostdiving     :      38.12       0.00      14884          1          1
  randrounding     :       0.83       0.00      86656          0          0
  rens             :       0.00       0.00          0          0          0
  reoptsols        :       0.00       0.00          0          0          0
  rins             :       4.12       0.00        105          1          0
  rootsoldiving    :      25.12       0.00       3751         28          0
  rounding         :       0.86       0.00      20812          0          0
  shiftandpropagate:       0.01       0.00          1          1          1
  shifting         :       1.24       0.00       5347          0          0
  simplerounding   :       0.43       0.00          0          0          0
  subnlp           :       0.56       0.00          0          0          0
  trivial          :       0.00       0.00          2          0          0
  trivialnegation  :       0.00       0.00          0          0          0
  trysol           :       0.74       0.00          0          0          0
  twoopt           :       0.00       0.00          0          0          0
  undercover       :       0.00       0.00          1          0          0
  vbounds          :       0.00       0.00          0          0          0
  veclendiving     :      39.21       0.00      14884          0          0
  zeroobj          :       0.00       0.00          0          0          0
  zirounding       :       0.59       0.00       1000          0          0
  other solutions  :          -          -          -          0          -
Diving Statistics  :      Calls      Nodes   LP Iters Backtracks   MinDepth   MaxDepth   AvgDepth  NLeafSols  MinSolDpt  MaxSolDpt  AvgSolDpt
  actconsdiving    :          0          -          -          -          -          -          -          -          -          -          -
  coefdiving       :      14884      86883     816926      21417         17         43       28.3          -          -          -          -
  distributiondivin:      14884      81811    1012260      19376         15         42       28.1          -          -          -          -
  fracdiving       :      14884      90762    1126428      23137         15         43       28.4          -          -          -          -
  guideddiving     :      14884      92397    1069864      21439         16         45       28.7          -          -          -          -
  linesearchdiving :      14884      85952    1101262      24677         16         40       28.0          -          -          -          -
  pscostdiving     :      14884      97693     949076      18605         15         51       29.2          -          -          -          -
  veclendiving     :      14884      89004     861491      27429         16         38       28.0          -          -          -          -
LP                 :       Time      Calls Iterations  Iter/call   Iter/sec  Time-0-It Calls-0-It
  primal LP        :       0.31         28       7504     312.67   24206.45       0.00          4
  dual LP          :    1581.60    4039407   62869907      17.24   39750.83      36.70     393193
  lex dual LP      :       0.00          0          0       0.00          -
  barrier LP       :       0.00          0          0       0.00          -       0.00          0
  diving/probing LP:     210.12     285612    8395390      29.39   39955.22
  strong branching :       9.26       9868     326460      33.08   35254.86
    (at root node) :          -         39       4812     123.38          -
  conflict analysis:       0.00          0          0       0.00          -
B&B Tree           :
  number of runs   :          1
  nodes            :    4020983 (2189485 internal, 1831498 leaves)
  nodes (total)    :    4020983 (2189485 internal, 1831498 leaves)
  nodes left       :     308586
  max depth        :         38
  max depth (total):         38
  backtracks       :     946154 (23.5%)
  delayed cutoffs  :      24654
  repropagations   :     182063 (6115668 domain reductions, 22237 cutoffs)
  avg switch length:       5.84
  switching time   :     480.09
Root Node          :
  First LP value   : +3.00000000000000e+00
  First LP Iters   :        418
  First LP Time    :       0.00
  Final Dual Bound : +8.68466758013399e-01
  Final Root Iters :       1953
Solution           :
  Solutions found  :         96 (18 improvements)
  First Solution   : +0.00000000000000e+00   (in run 1, after 1 nodes, 0.06 seconds, depth 15, found by <shiftandpropagate>)
  Gap First Sol.   :   infinite
  Gap Last Sol.    :      51.35 %
  Primal Bound     : +2.50889999000132e-04   (in run 1, after 646795 nodes, 644.27 seconds, depth 33, found by <relaxation>)
  Dual Bound       : +3.50562764142624e-04
  Gap              :      39.73 %
  Avg. Gap         :      35.84 % (129023.30 primal-dual integral)
